Route #1: 72 39 27 28 69 29 12 21 75 23 67 73 40 76 79 78 81 9 51 90 34 3 50 26 68 54 56 74 4 55 25 24 80 77 58 
Route #2: 59 92 42 14 5 83 45 82 52 95 2 15 98 61 16 44 38 86 85 99 87 53 22 41 57 43 37 97 96 13 91 100 93 17 60 48 89 
Route #3: 33 65 63 31 47 36 64 11 19 62 71 30 88 7 8 18 6 94 84 49 46 10 20 66 35 32 70 1 
Objective: 56908.5
